
(set-logic BV)

(define-fun shr1 ((x (BitVec 64))) (BitVec 64) (bvlshr x #x0000000000000001))
(define-fun shr4 ((x (BitVec 64))) (BitVec 64) (bvlshr x #x0000000000000004))
(define-fun shr16 ((x (BitVec 64))) (BitVec 64) (bvlshr x #x0000000000000010))
(define-fun shl1 ((x (BitVec 64))) (BitVec 64) (bvshl x #x0000000000000001))
(define-fun if0 ((x (BitVec 64)) (y (BitVec 64)) (z (BitVec 64))) (BitVec 64) (ite (= x #x0000000000000001) y z))
(define-fun func26  ((A (BitVec 64)) ) (BitVec 64) (bvand A  #x0000000000000001 ))
(define-fun func27  ((A (BitVec 64)) (B (BitVec 64)) (C (BitVec 64)) ) (BitVec 64) (bvand (bvlshr B  C ) A ))
(define-fun func28  ((A (BitVec 64)) (B (BitVec 64)) ) (BitVec 64) (bvand (bvlshr B  #x0000000000000001 ) A ))
(define-fun func29  ((A (BitVec 64)) (B (BitVec 64)) ) (BitVec 64) (bvand (bvlshr B  #x0000000000000010 ) A ))
(define-fun func30  ((A (BitVec 64)) (B (BitVec 64)) ) (BitVec 64) (bvand (bvlshr B  #x0000000000000004 ) A ))
(define-fun func31  ((A (BitVec 64)) (B (BitVec 64)) (C (BitVec 64)) (D (BitVec 64)) ) (BitVec 64) (bvand (bvlshr (bvlshr C  D ) B ) A ))
(define-fun func32  ((A (BitVec 64)) (B (BitVec 64)) ) (BitVec 64) (bvand (bvlshr A  B ) #x0000000000000001 ))
(define-fun func33  ((A (BitVec 64)) (B (BitVec 64)) ) (BitVec 64) (bvlshr A  B ))
(define-fun func34  ((A (BitVec 64)) (B (BitVec 64)) (C (BitVec 64)) ) (BitVec 64) (bvlshr (bvlshr B  C ) A ))
(define-fun func35  ((A (BitVec 64)) (B (BitVec 64)) ) (BitVec 64) (bvlshr (bvlshr B  #x0000000000000010 ) A ))
(define-fun func36  ((A (BitVec 64)) (B (BitVec 64)) ) (BitVec 64) (bvlshr (bvlshr B  #x0000000000000004 ) A ))
(define-fun func37  ((A (BitVec 64)) (B (BitVec 64)) (C (BitVec 64)) (D (BitVec 64)) ) (BitVec 64) (bvlshr (bvlshr (bvlshr C  D ) B ) A ))
(define-fun func38  ((A (BitVec 64)) (B (BitVec 64)) (C (BitVec 64)) ) (BitVec 64) (bvlshr (bvlshr (bvlshr C  #x0000000000000010 ) B ) A ))
(define-fun func39  ((A (BitVec 64)) (B (BitVec 64)) ) (BitVec 64) (bvlshr (bvlshr A  B ) #x0000000000000001 ))
(define-fun func40  ((A (BitVec 64)) (B (BitVec 64)) ) (BitVec 64) (bvlshr (bvlshr A  B ) #x0000000000000004 ))
(define-fun func41  ((A (BitVec 64)) (B (BitVec 64)) (C (BitVec 64)) ) (BitVec 64) (bvlshr (bvshl B  C ) A ))
(define-fun func42  ((A (BitVec 64)) (B (BitVec 64)) ) (BitVec 64) (bvlshr (bvshl B  #x0000000000000001 ) A ))
(define-fun func43  ((A (BitVec 64)) (B (BitVec 64)) (C (BitVec 64)) ) (BitVec 64) (bvlshr (bvadd B  C ) A ))
(define-fun func44  ((A (BitVec 64)) (B (BitVec 64)) ) (BitVec 64) (bvlshr (bvnot B ) A ))
(define-fun func45  ((A (BitVec 64)) ) (BitVec 64) (bvlshr (bvnot A ) #x0000000000000010 ))
(define-fun func47  ((A (BitVec 64)) (B (BitVec 64)) (C (BitVec 64)) ) (BitVec 64) (bvshl (bvlshr B  C ) A ))
(define-fun func48  ((A (BitVec 64)) (B (BitVec 64)) ) (BitVec 64) (bvshl (bvlshr B  #x0000000000000001 ) A ))
(define-fun func49  ((A (BitVec 64)) (B (BitVec 64)) ) (BitVec 64) (bvshl (bvlshr A  B ) #x0000000000000001 ))
(define-fun func50  ((A (BitVec 64)) (B (BitVec 64)) (C (BitVec 64)) ) (BitVec 64) (bvshl (bvshl B  C ) A ))
(define-fun func51  ((A (BitVec 64)) (B (BitVec 64)) ) (BitVec 64) (bvshl (bvshl B  #x0000000000000001 ) A ))
(define-fun func52  ((A (BitVec 64)) (B (BitVec 64)) ) (BitVec 64) (bvshl (bvshl A  B ) #x0000000000000001 ))
(define-fun func53  ((A (BitVec 64)) (B (BitVec 64)) ) (BitVec 64) (bvshl (bvnot B ) A ))
(define-fun func54  ((A (BitVec 64)) ) (BitVec 64) (bvshl (bvnot A ) #x0000000000000001 ))
(define-fun func55  ((A (BitVec 64)) ) (BitVec 64) (bvadd A  #x0000000000000001 ))
(define-fun func56  ((A (BitVec 64)) (B (BitVec 64)) (C (BitVec 64)) ) (BitVec 64) (bvadd (bvlshr B  C ) A ))
(define-fun func57  ((A (BitVec 64)) ) (BitVec 64) (bvor A  #x0000000000000001 ))
(define-fun func58  ((A (BitVec 64)) (B (BitVec 64)) (C (BitVec 64)) ) (BitVec 64) (bvor (bvlshr B  C ) A ))
(define-fun func60  ((A (BitVec 64)) ) (BitVec 64) (bvnot (bvshl A  #x0000000000000001 )))
(synth-fun f ( (x (BitVec 64))) (BitVec 64)
(
(Start (BitVec 64) (
   #x0000000000000000
   #x0000000000000001
   x
   (func26 Start)
   (func28 Start Start)
   (func29 Start Start)
   (func30 Start Start)
   (func31 Start Start Start Start)
   (func42 Start Start)
   (func47 Start Start Start)
   (func49 Start Start)
   (func50 Start Start Start)
   (func60 Start)
   (bvnot Start)
   (shl1 Start)
   (shr1 Start)
   (shr4 Start)
   (shr16 Start)
   (bvand Start Start)
   (bvor Start Start)
   (bvxor Start Start)
   (bvadd Start Start)
   (if0 Start Start Start)
))
))
(constraint (= (f #xcfbae81390afa698) #xffffffffcfbae813))
(constraint (= (f #xd084207d0e11e641) #xffffffffd084207d))
(constraint (= (f #x2695fd2bfa0973dd) #xffffffff2695fd2b))
(constraint (= (f #x1db98e96c36ac14c) #xffffffff1db98e96))
(constraint (= (f #x93d97b67c0134561) #xffffffff93d97b67))
(constraint (= (f #x319631563c9378af) #x19cd39d5386d90ea))
(constraint (= (f #xb0ca4ab4cff52177) #x09e6b6a966015bd1))
(constraint (= (f #x8849fe48422d5f4f) #x0ef6c036f7ba5416))
(constraint (= (f #x90b3a3a8146f2b73) #x0de98b8afd721a91))
(constraint (= (f #x95efe7d3997eaaa3) #x0d4203058cd02aab))
(constraint (= (f #x000000000001b238) #xffffffff00000000))
(constraint (= (f #x000000000001af24) #xffffffff00000000))
(constraint (= (f #x00000000000107d1) #xffffffff00000000))
(constraint (= (f #x000000000001c2e1) #xffffffff00000000))
(constraint (= (f #x0000000000015dd0) #xffffffff00000000))
(constraint (= (f #xa424100229285149) #xffffffff00000000))
(constraint (= (f #x4a84894a88240885) #xffffffff00000000))
(constraint (= (f #x85524490902a9155) #xffffffff00000000))
(constraint (= (f #x24a544a4a4485121) #xffffffff00000000))
(constraint (= (f #x14a490a45044a529) #xffffffff00000000))
(constraint (= (f #x00000000000152c3) #xffffffff00000000))
(constraint (= (f #x0000000000012d93) #xffffffff00000000))
(constraint (= (f #x000000000001bb0b) #xffffffff00000000))
(constraint (= (f #x00000000000183af) #xffffffff00000000))
(constraint (= (f #x0000000000014f8b) #xffffffff00000000))
(constraint (= (f #x922caa595a0f05da) #x0dba6ab4d4be1f44))
(constraint (= (f #x888f3a18a2ac2b5e) #x0eee18bcebaa7a94))
(constraint (= (f #xcdef76aca8776616) #x0642112a6af1133d))
(constraint (= (f #x5a67867f8134b38e) #x14b30f300fd9698e))
(constraint (= (f #x328bfe6d823e8eb6) #x19ae80324fb82e29))
(constraint (= (f #x0000000000015021) #xffffffff00000000))
(constraint (= (f #x0000000000010a85) #xffffffff00000000))
(constraint (= (f #x0000000000014495) #xffffffff00000000))
(constraint (= (f #x0000000000015451) #xffffffff00000000))
(constraint (= (f #x0000000000012495) #xffffffff00000000))
(constraint (= (f #x0000000000000001) #xffffffff00000000))
(constraint (= (f #x0000000000016f96) #x1fffffffffffd20d))
(constraint (= (f #x0000000000017c06) #x1fffffffffffd07f))
(constraint (= (f #x0000000000014bde) #x1fffffffffffd684))
(constraint (= (f #x000000000001b426) #x1fffffffffffc97b))
(constraint (= (f #x0000000000015a0e) #x1fffffffffffd4be))
(constraint (= (f #xffff0000ffff0002) #x1fffffffffffffff))
(check-synth)
